NAME : mtspf.pid4331.gtsp.240092044.tour
COMMENT : Length = 240092044
COMMENT : Found by LKH [Keld Helsgaun] Sat Feb  8 23:52:30 2025
TYPE : TOUR
DIMENSION : 135
TOUR_SECTION
1
49
50
51
48
102
103
100
101
107
104
105
106
93
94
95
92
34
35
32
33
78
79
76
77
91
88
89
90
6
125
126
127
124
130
131
128
129
10
56
57
58
59
45
46
47
44
15
3
5
132
133
134
135
75
72
73
74
83
80
81
82
119
116
117
118
30
31
28
29
85
86
87
84
13
2
12
22
23
20
21
122
123
120
121
42
43
40
41
14
25
26
27
24
96
97
98
99
9
11
4
109
110
111
108
38
39
36
37
65
66
67
64
54
55
52
53
63
60
61
62
19
16
17
18
7
70
71
68
69
114
115
112
113
8
-1
EOF
